(set-logic QF_BV)
(declare-fun _substvar_95_ () (_ BitVec 47))
(declare-fun _substvar_175_ () (_ BitVec 47))
(declare-fun _substvar_254_ () Bool)
(declare-fun _substvar_173_ () (_ BitVec 47))
(declare-fun _substvar_168_ () (_ BitVec 47))
(assert (and true true true true true true true true true true true true true true true true true true true true true true true true true true true true true true true true true true true true true true true true true true true true (= _substvar_168_ (_ bv0 47)) (ite _substvar_254_ (= _substvar_173_ (_ bv0 47)) (= _substvar_173_ (concat (_ bv0 46) (bvxor (_ bv0 1) ((_ extract 41 41) _substvar_168_))))) (= _substvar_175_ (concat ((_ extract 45 0) _substvar_173_) (bvxor ((_ extract 46 46) _substvar_173_) ((_ extract 41 41) _substvar_173_)))) (= _substvar_95_ (concat ((_ extract 45 0) _substvar_175_) (_ bv0 1))) true true true true true true true true true true true true true true true true true true true true true true true true true true true true true true true true true true true true true true true true true true true true true true true true true true true true true true true true true true true true true true true true true true true true true true true true true true true true true true true true true true true true true true true true true true true true true true true true true true true true true true true true true true true true true true true true true true true true true true true true true true true true true true true true true true true true true true true true true true true true true true true true true true true true true true true true true true (= (= _substvar_95_ (_ bv0 47)) false)))
(check-sat)
(exit)
